NAME : MM5_depots
COMMENT : Instance 5 in MD algorithm. Coordinates of depots and vhcl speeds given.
TYPE : TSP
DIMENSION : 10
EDGE_WEIGHT_TYPE : EUC
NODE_COORD_SECTION
391 33.7083 39.2445 1
392 57.5542 64.0354 1
393 61.0117 5.1591 1
394 95.1798 96.9469 1
395 78.8370 30.4870 1
396 25.7830 87.4796 1
397 58.1238 41.5663 1
398 56.5414 54.3891 1
399 78.1262 31.0382 1
400 86.8901 68.5936 1
EOF